lab2/P1-pulp.lp
\* P1 *\
Minimize
OBJ: z
Subject To
_C1: x_0_0 + x_0_1 + x_0_2 = 1
_C10: - 0.37229616119 x_0_2 - 0.799239077774 x_1_2 - 0.442460600188 x_2_2
 - 0.150759497278 x_3_2 + z >= 0
_C2: x_1_0 + x_1_1 + x_1_2 = 1
_C3: x_2_0 + x_2_1 + x_2_2 = 1
_C4: x_3_0 + x_3_1 + x_3_2 = 1
_C5: 261.27 x_0_0 + 560.89 x_1_0 + 310.51 x_2_0 + 105.8 x_3_0 <= 505.67
_C6: 261.27 x_0_1 + 560.89 x_1_1 + 310.51 x_2_1 + 105.8 x_3_1 <= 503.68
_C7: 261.27 x_0_2 + 560.89 x_1_2 + 310.51 x_2_2 + 105.8 x_3_2 <= 701.78
_C8: - 0.516680839283 x_0_0 - 1.10920165325 x_1_0 - 0.614056598177 x_2_0
 - 0.209227361718 x_3_0 + z >= 0
_C9: - 0.518722204574 x_0_1 - 1.1135840216 x_1_1 - 0.616482687421 x_2_1
 - 0.210054002541 x_3_1 + z >= 0
Bounds
x_0_0 <= 1
x_0_1 <= 1
x_0_2 <= 1
x_1_0 <= 1
x_1_1 <= 1
x_1_2 <= 1
x_2_0 <= 1
x_2_1 <= 1
x_2_2 <= 1
x_3_0 <= 1
x_3_1 <= 1
x_3_2 <= 1
z <= 1
End
